*000000001111111111222222222233333333334444444444555555555566
*234567890123456789012345678901234567890123456789012345678901
NAME          A0
ROWS
 N  OBJF
 L  ROW1
 L  ROW2
 L  ROW3
COLUMNS
    X1        ROW1      4              ROW2      2
    X1        ROW3      -5             OBJF      -1
    X2        ROW1      -1             ROW2      1
    X2        ROW3      2              OBJF      -1
RHS
    RHS1      ROW1      8              ROW2      10
    RHS1      ROW3      2
BOUNDS
 UP BOUND1    X1        1
ENDATA